20
1 0 16
2 0 2
2 1 4
3 0 16
3 1 13
3 2 13
4 0 1
4 1 9
4 2 13
4 3 20
5 0 9
5 1 4
5 2 3
5 3 11
5 4 17
6 0 13
6 1 9
6 2 14
6 3 8
6 4 12
6 5 3
7 0 13
7 1 9
7 2 14
7 3 13
7 4 13
7 5 20
7 6 8
8 0 15
8 1 10
8 2 10
8 3 14
8 4 17
8 5 17
8 6 14
8 7 7
9 0 16
9 1 12
9 2 20
9 3 20
9 4 6
9 5 17
9 6 10
9 7 19
9 8 1
10 0 12
10 1 17
10 2 16
10 3 4
10 4 13
10 5 13
10 6 5
10 7 13
10 8 16
10 9 10
11 0 2
11 1 7
11 2 13
11 3 20
11 4 9
11 5 4
11 6 11
11 7 6
11 8 16
11 9 12
11 10 20
12 0 18
12 1 4
12 2 12
12 3 18
12 4 2
12 5 19
12 6 8
12 7 10
12 8 3
12 9 7
12 10 14
12 11 12
13 0 11
13 1 12
13 2 15
13 3 10
13 4 20
13 5 12
13 6 20
13 7 12
13 8 5
13 9 10
13 10 10
13 11 14
13 12 13
14 0 13
14 1 12
14 2 4
14 3 1
14 4 3
14 5 8
14 6 10
14 7 11
14 8 2
14 9 14
14 10 5
14 11 6
14 12 4
14 13 18
15 0 17
15 1 1
15 2 16
15 3 2
15 4 3
15 5 11
15 6 1
15 7 16
15 8 5
15 9 9
15 10 5
15 11 6
15 12 7
15 13 18
15 14 8
16 0 7
16 1 20
16 2 13
16 3 5
16 4 13
16 5 11
16 6 13
16 7 13
16 8 3
16 9 9
16 10 13
16 11 5
16 12 16
16 13 10
16 14 5
16 15 18
17 0 2
17 1 11
17 2 14
17 3 16
17 4 16
17 5 9
17 6 2
17 7 11
17 8 14
17 9 2
17 10 17
17 11 3
17 12 2
17 13 3
17 14 20
17 15 4
17 16 14
18 0 17
18 1 17
18 2 10
18 3 17
18 4 8
18 5 20
18 6 6
18 7 18
18 8 9
18 9 14
18 10 10
18 11 2
18 12 9
18 13 16
18 14 13
18 15 15
18 16 13
18 17 1
19 0 14
19 1 6
19 2 13
19 3 5
19 4 17
19 5 20
19 6 8
19 7 3
19 8 16
19 9 2
19 10 5
19 11 15
19 12 18
19 13 17
19 14 3
19 15 8
19 16 6
19 17 14
19 18 1
